#Generated by Multiwfn
&GLOBAL
  PROJECT MoS2
  PRINT_LEVEL LOW
  RUN_TYPE MD
&END GLOBAL

&FORCE_EVAL
  METHOD Quickstep
  &SUBSYS
    &CELL
      A     1.5927208628313819E+01    0.0000000000000000E+00    0.0000000000000000E+00
       B    -7.9634159743407711E+00    1.3793478106273774E+01    0.0000000000000000E+00
       C    -7.7462081203006682E-06   -8.4551972510786549E-06    1.3223809774270340E+01
      PERIODIC XYZ #Direction of applied PBC (geometry aspect)
    &END CELL
    &COORD
      Mo 8.41961e-05 1.839093018 3.305950055
S 1.592792887 0.919530311 4.870724234
S 1.592791969 0.919526898 1.741194285
Mo -1.592597621 4.597789031 3.305962359
S 1.08934e-04 3.678225386 4.870718168
S 1.10205e-04 3.678220602 1.741187638
Mo -3.185281087 7.356485001 3.305971672
S -1.592574062 6.436918801 4.870713946
S -1.592572116 6.436919467 1.741183603
Mo -4.777965811 10.11518084 3.305965602
S -3.185257025 9.195612579 4.870716798
S -3.185257762 9.195617819 1.741186934
Mo -6.370649378 12.87387633 3.3059527
S -4.777939949 11.9543095 4.870723482
S -4.777943177 11.95431268 1.741193136
Mo 3.185526072 1.839093896 3.305953896
S 4.778235441 0.919529289 4.87072192
S 4.778232694 0.919527403 1.741192291
Mo 1.592842239 4.597788455 3.305961509
S 3.185551988 3.678225485 4.870719098
S 3.185550885 3.678221755 1.741189148
Mo 1.5921e-04 7.35648425 3.305970342
S 1.592867659 6.436918759 1.741186827
Mo -1.592524421 10.11518027 3.305967183
S 1.83315e-04 9.195612817 4.87072006
S 1.84529e-04 9.195616675 1.741189028
Mo -3.185208103 12.87387595 3.305956795
S -1.592499357 11.95430975 4.870720965
S -1.59250089 11.95431114 1.741191297
Mo 6.370968192 1.839093342 3.305952513
S 7.963677223 0.919528857 4.870719811
S 7.963675965 0.919526444 1.741190152
Mo 4.778285419 4.597787983 3.305958946
S 6.370995515 3.678224425 4.870717171
S 6.370993228 3.678221843 1.741187456
Mo 3.185601304 7.356483842 3.305962553
S 4.778309308 6.436919006 1.741187431
Mo 1.59291711 10.11518061 3.305959471
H 3.18562467 9.195611968 4.870721435
S 3.185625883 9.195616722 1.74119209
Mo 2.33909e-04 12.87387534 3.305951367
S 1.592941537 11.95431054 4.870722896
S 1.592943799 11.95431074 1.741193384
Mo 9.556410388 1.839093475 3.305947904
S 11.14911785 0.919530225 4.870721412
S 11.14911929 0.919525286 1.741191526
Mo 7.963727574 4.597789072 3.305958934
S 9.556436506 3.678225272 4.870714926
S 9.556435645 3.678222175 1.741185116
Mo 6.371043522 7.356483915 3.305960526
S 7.963753633 6.436917977 4.870714897
S 7.963751633 6.436920103 1.741185069
Mo 4.77835873 10.11517965 3.305953556
S 6.371068027 9.19561069 4.870721773
S 6.371066772 9.195617073 1.741192359
Mo 3.185677054 12.87387532 3.305945231
S 4.778384148 11.95430944 4.870726591
S 4.778385726 11.95431056 1.741196726
Mo 12.74185213 1.839092912 3.305946633
S 14.33455947 0.919529955 4.870724039
S 14.33456069 0.919524714 1.741193699
Mo 11.14916947 4.597789027 3.305960284
S 12.74187703 3.678225556 4.870715402
S 12.74187844 3.678220874 1.741185533
Mo 9.556485972 7.35648417 3.305966217
S 11.14919518 6.43691848 4.870712725
S 11.14919459 6.436920079 1.741182525
Mo 7.963801442 10.11517954 3.305957345
S 9.556511306 9.195611321 4.870719076
S 9.556508566 9.195617799 1.741189118
Mo 6.371118459 12.8738757 3.305945636
S 7.963827307 11.95430873 4.870726542
S 7.963825804 11.95431142 1.741196629
    &END COORD
#   &VELOCITY #You can set initial atomic velocities in this section
#   &END VELOCITY
    &KIND Mo   
      ELEMENT Mo
      BASIS_SET DZVP-MOLOPT-SR-GTH-q14
      POTENTIAL GTH-PBE
    &END KIND
    &KIND S    
      ELEMENT S 
      BASIS_SET DZVP-MOLOPT-SR-GTH-q6
      POTENTIAL GTH-PBE
    &END KIND
     &KIND H    
      ELEMENT H 
      BASIS_SET DZVP-MOLOPT-SR-GTH-q1
      POTENTIAL GTH-PBE
    &END KIND
  &END SUBSYS

  &DFT
    BASIS_SET_FILE_NAME  BASIS_MOLOPT
    POTENTIAL_FILE_NAME  POTENTIAL
#   WFN_RESTART_FILE_NAME MoS2-RESTART.wfn
    CHARGE    -3 #Net charge
    MULTIPLICITY    1 #Spin multiplicity
    &QS
      EPS_DEFAULT 1.0E-10 #Set all EPS_xxx to values such that the energy will be correct up to this value
      EXTRAPOLATION ASPC #Extrapolation for wavefunction during e.g. MD. ASPC is default, PS also be used
      EXTRAPOLATION_ORDER 3 #Order for PS or ASPC extrapolation. 3 is default
    &END QS
    &POISSON
      PERIODIC XYZ #Direction(s) of PBC for calculating electrostatics
      PSOLVER PERIODIC #The way to solve Poisson equation
    &END POISSON
    &XC
      &XC_FUNCTIONAL PBE
      &END XC_FUNCTIONAL
      &VDW_POTENTIAL
        POTENTIAL_TYPE PAIR_POTENTIAL
        &PAIR_POTENTIAL
          PARAMETER_FILE_NAME dftd3.dat
          TYPE DFTD3(BJ)
          REFERENCE_FUNCTIONAL PBE
        &END PAIR_POTENTIAL
      &END VDW_POTENTIAL
    &END XC
    &MGRID
      CUTOFF 300
      REL_CUTOFF 40
    &END MGRID
    &SCF
      MAX_SCF 128
      EPS_SCF 1.0E-05 #Convergence threshold of density matrix of inner SCF
#     SCF_GUESS RESTART #Use wavefunction from WFN_RESTART_FILE_NAME file as initial guess
      &DIAGONALIZATION
        ALGORITHM STANDARD #Algorithm for diagonalization. DAVIDSON is faster for large systems
      &END DIAGONALIZATION
      &MIXING #How to mix old and new density matrices
        METHOD BROYDEN_MIXING #PULAY_MIXING is also a good alternative
        ALPHA 0.4 #Default. Mixing 40% of new density matrix with the old one
        NBROYDEN 8 #Default is 4. Number of previous steps stored for the actual mixing scheme
      &END MIXING
      &PRINT
        &RESTART OFF #Do not generate wfn file to suppress meaningless I/O cost
        &END RESTART
      &END PRINT
    &END SCF
  &END DFT
&END FORCE_EVAL

&MOTION
  &MD
    ENSEMBLE NVE
    STEPS 2000 #Number of steps to run
    TIMESTEP 1.0 #Step size in fs. Decrease it properly for high temperature simulation
    TEMPERATURE 1200 #Initial and maintained temperature (K)
#   COMVEL_TOL 0 #Uncomment this can remove translation motion of center-of-mass every step
#   ANGVEL_TOL 0 #Uncomment this can remove overall rotation every step
    ANGVEL_ZERO T #Eliminate overall rotation component from initial velocity
  &END MD
  &PRINT
    &TRAJECTORY
      &EACH
        MD   1 #Output frequency of coordinate
      &END EACH
      FORMAT xyz
    &END TRAJECTORY
    &VELOCITIES
      &EACH
        MD     1 #Output frequency of velocity
      &END EACH
    &END VELOCITIES
    &RESTART
      BACKUP_COPIES 0 #Maximum number of backing up restart file, 0 means never
      &EACH
        MD 1 #Frequency of updating last restart file
      &END EACH
    &END RESTART
    &RESTART_HISTORY OFF 
    &END RESTART_HISTORY
  &END PRINT
&END MOTION
